benchmark/results/graph__10-1000-0.10-03_17/graph__10-1000-0.10-03_17_QuintonOs_Benders_primal_sub.lp
\ This file has been generated by DOcplex
\ ENCODING=ISO-8859-1
\Problem name: Quinton Bounded Benders_primal_sub

Maximize
 obj: tau
Subject To
 c1: tau <= 0.001402524544
 c2: y_a0_proc_0 + y_a0_proc_2 - tau = 0
 c3: y_a0_proc_0 <= 0
 c4: y_a0_proc_2 <= 1
 c5: tau <= 0.000917431193
 c6: y_a1_proc_0 + y_a1_proc_2 - tau = 0
 c7: y_a1_proc_0 <= 1
 c8: y_a1_proc_2 <= 0
 c9: tau <= 0.004608294931
 c10: y_a2_proc_0 + y_a2_proc_1 + y_a2_proc_2 - tau = 0
 c11: y_a2_proc_0 <= 0
 c12: y_a2_proc_1 <= 1
 c13: y_a2_proc_2 <= 0
 c14: tau <= 0.001574803150
 c15: y_a3_proc_1 + y_a3_proc_2 - tau = 0
 c16: y_a3_proc_1 <= 0
 c17: y_a3_proc_2 <= 1
 c18: tau <= 0.001303780965
 c19: y_a4_proc_0 + y_a4_proc_1 + y_a4_proc_2 - tau = 0
 c20: y_a4_proc_0 <= 0
 c21: y_a4_proc_1 <= 0
 c22: y_a4_proc_2 <= 1
 c23: tau <= 0.001221001221
 c24: y_a5_proc_0 + y_a5_proc_2 - tau = 0
 c25: y_a5_proc_0 <= 0
 c26: y_a5_proc_2 <= 1
 c27: tau <= 0.001009081736
 c28: y_a6_proc_0 + y_a6_proc_1 + y_a6_proc_2 - tau = 0
 c29: y_a6_proc_0 <= 0
 c30: y_a6_proc_1 <= 1
 c31: y_a6_proc_2 <= 0
 c32: tau <= 0.001119820829
 c33: y_a7_proc_0 + y_a7_proc_1 + y_a7_proc_2 - tau = 0
 c34: y_a7_proc_0 <= 1
 c35: y_a7_proc_1 <= 0
 c36: y_a7_proc_2 <= 0
 c37: tau <= 0.001190476190
 c38: y_a8_proc_0 + y_a8_proc_1 - tau = 0
 c39: y_a8_proc_0 <= 1
 c40: y_a8_proc_1 <= 0
 c41: tau <= 0.000804505229
 c42: y_a9_proc_0 + y_a9_proc_1 + y_a9_proc_2 - tau = 0
 c43: y_a9_proc_0 <= 0
 c44: y_a9_proc_1 <= 1
 c45: y_a9_proc_2 <= 0
 c46: u_a1 - u_a0 - 1018 y_a0_proc_0 - 713 y_a0_proc_2 >= 0
 c47: u_a1 - u_a2 - 311 y_a2_proc_0 - 217 y_a2_proc_1 - 1061 y_a2_proc_2 >= -1
 c48: u_a0 - u_a3 - 953 y_a3_proc_1 - 635 y_a3_proc_2 >= 0
 c49: u_a0 - u_a4 - 1074 y_a4_proc_0 - 932 y_a4_proc_1 - 767 y_a4_proc_2 >= -1
 c50: u_a5 - u_a1 - 1090 y_a1_proc_0 - 1288 y_a1_proc_2 >= -1
 c51: u_a6 - u_a4 - 1074 y_a4_proc_0 - 932 y_a4_proc_1 - 767 y_a4_proc_2 >= 0
 c52: u_a7 - u_a2 - 311 y_a2_proc_0 - 217 y_a2_proc_1 - 1061 y_a2_proc_2 >= 0
 c53: u_a8 - u_a0 - 1018 y_a0_proc_0 - 713 y_a0_proc_2 >= 0
 c54: u_a9 - u_a6 - 969 y_a6_proc_0 - 991 y_a6_proc_1 - 516 y_a6_proc_2 >= -1
 c55: u_a5 - u_a7 - 893 y_a7_proc_0 - 1135 y_a7_proc_1 - 859 y_a7_proc_2 >= -1
 c56: u_a3 - u_a9 - 815 y_a9_proc_0 - 1243 y_a9_proc_1 - 1173 y_a9_proc_2 >= -1
 c57: u_a1 - u_a5 - 994 y_a5_proc_0 - 819 y_a5_proc_2 >= 0
 c58: u_a9 - u_a2 - 311 y_a2_proc_0 - 217 y_a2_proc_1 - 1061 y_a2_proc_2 >= -2
 c59: u_a8 - u_a3 - 953 y_a3_proc_1 - 635 y_a3_proc_2 >= 0
 c60: u_a2 - u_a1 - 1090 y_a1_proc_0 - 1288 y_a1_proc_2 >= 0
 c61: u_a4 - u_a8 - 840 y_a8_proc_0 - 1243 y_a8_proc_1 >= 0
 c62: u_a3 - u_a4 - 1074 y_a4_proc_0 - 932 y_a4_proc_1 - 767 y_a4_proc_2 >= -1
 c63: u_a1 - u_a0 - 713 y_a0_proc_2 >= -1301
 c64: u_a1 - u_a0 - 1018 y_a0_proc_0 >= -1301
 c65: u_a0 - u_a1 - 1288 y_a1_proc_2 >= -1276
 c66: u_a0 - u_a1 - 1090 y_a1_proc_0 >= -1276
 c67: u_a2 - u_a0 - 713 y_a0_proc_2 >= -1276
 c68: u_a2 - u_a0 - 1018 y_a0_proc_0 >= -2564
 c69: u_a0 - u_a2 - 1061 y_a2_proc_2 >= -1301
 c70: u_a0 - u_a2 - 311 y_a2_proc_0 >= -2589
 c71: u_a3 - u_a0 - 713 y_a0_proc_2 >= -1
 c72: u_a0 - u_a3 - 635 y_a3_proc_2 >= 0
 c73: u_a4 - u_a0 - 713 y_a0_proc_2 >= 0
 c74: u_a4 - u_a0 - 1018 y_a0_proc_0 >= -2576
 c75: u_a0 - u_a4 - 767 y_a4_proc_2 >= -1
 c76: u_a0 - u_a4 - 1074 y_a4_proc_0 >= -2577
 c77: u_a5 - u_a0 - 713 y_a0_proc_2 >= 1
 c78: u_a5 - u_a0 - 1018 y_a0_proc_0 >= -2575
 c79: u_a0 - u_a5 - 819 y_a5_proc_2 >= -2
 c80: u_a0 - u_a5 - 994 y_a5_proc_0 >= -2578
 c81: u_a6 - u_a0 - 713 y_a0_proc_2 >= -1276
 c82: u_a6 - u_a0 - 1018 y_a0_proc_0 >= -2564
 c83: u_a0 - u_a6 - 516 y_a6_proc_2 >= -1301
 c84: u_a0 - u_a6 - 969 y_a6_proc_0 >= -2589
 c85: u_a7 - u_a0 - 713 y_a0_proc_2 >= -1276
 c86: u_a7 - u_a0 - 1018 y_a0_proc_0 >= -1276
 c87: u_a0 - u_a7 - 859 y_a7_proc_2 >= -1301
 c88: u_a0 - u_a7 - 893 y_a7_proc_0 >= -1301
 c89: u_a8 - u_a0 - 1018 y_a0_proc_0 >= -1301
 c90: u_a0 - u_a8 - 840 y_a8_proc_0 >= -1276
 c91: u_a9 - u_a0 - 713 y_a0_proc_2 >= -1301
 c92: u_a9 - u_a0 - 1018 y_a0_proc_0 >= -2589
 c93: u_a0 - u_a9 - 1173 y_a9_proc_2 >= -1276
 c94: u_a0 - u_a9 - 815 y_a9_proc_0 >= -2564
 c95: u_a2 - u_a1 - 1288 y_a1_proc_2 >= -2589
 c96: u_a2 - u_a1 - 1090 y_a1_proc_0 >= -1301
 c97: u_a1 - u_a2 - 1061 y_a2_proc_2 >= -2564
 c98: u_a1 - u_a2 - 311 y_a2_proc_0 >= -1276
 c99: u_a3 - u_a1 - 1288 y_a1_proc_2 >= -1301
 c100: u_a1 - u_a3 - 635 y_a3_proc_2 >= -1276
 c101: u_a4 - u_a1 - 1288 y_a1_proc_2 >= -1301
 c102: u_a4 - u_a1 - 1090 y_a1_proc_0 >= -1301
 c103: u_a1 - u_a4 - 767 y_a4_proc_2 >= -1276
 c104: u_a1 - u_a4 - 1074 y_a4_proc_0 >= -1276
 c105: u_a5 - u_a1 - 1288 y_a1_proc_2 >= -1301
 c106: u_a5 - u_a1 - 1090 y_a1_proc_0 >= -1301
 c107: u_a1 - u_a5 - 819 y_a5_proc_2 >= -1276
 c108: u_a1 - u_a5 - 994 y_a5_proc_0 >= -1276
 c109: u_a6 - u_a1 - 1288 y_a1_proc_2 >= -2564
 c110: u_a6 - u_a1 - 1090 y_a1_proc_0 >= -1276
 c111: u_a1 - u_a6 - 516 y_a6_proc_2 >= -2589
 c112: u_a1 - u_a6 - 969 y_a6_proc_0 >= -1301
 c113: u_a7 - u_a1 - 1288 y_a1_proc_2 >= -2576
 c114: u_a7 - u_a1 - 1090 y_a1_proc_0 >= 0
 c115: u_a1 - u_a7 - 859 y_a7_proc_2 >= -2577
 c116: u_a1 - u_a7 - 893 y_a7_proc_0 >= -1
 c117: u_a8 - u_a1 - 1090 y_a1_proc_0 >= -2
 c118: u_a1 - u_a8 - 840 y_a8_proc_0 >= 1
 c119: u_a9 - u_a1 - 1288 y_a1_proc_2 >= -2564
 c120: u_a9 - u_a1 - 1090 y_a1_proc_0 >= -1276
 c121: u_a1 - u_a9 - 1173 y_a9_proc_2 >= -2589
 c122: u_a1 - u_a9 - 815 y_a9_proc_0 >= -1301
 c123: u_a3 - u_a2 - 1061 y_a2_proc_2 >= -1276
 c124: u_a3 - u_a2 - 217 y_a2_proc_1 >= -1276
 c125: u_a2 - u_a3 - 635 y_a3_proc_2 >= -1301
 c126: u_a2 - u_a3 - 953 y_a3_proc_1 >= -1301
 c127: u_a4 - u_a2 - 1061 y_a2_proc_2 >= -1276
 c128: u_a4 - u_a2 - 217 y_a2_proc_1 >= -1276
 c129: u_a4 - u_a2 - 311 y_a2_proc_0 >= -2564
 c130: u_a2 - u_a4 - 767 y_a4_proc_2 >= -1301
 c131: u_a2 - u_a4 - 932 y_a4_proc_1 >= -1301
 c132: u_a2 - u_a4 - 1074 y_a4_proc_0 >= -2589
 c133: u_a5 - u_a2 - 1061 y_a2_proc_2 >= -1301
 c134: u_a5 - u_a2 - 311 y_a2_proc_0 >= -2589
 c135: u_a2 - u_a5 - 819 y_a5_proc_2 >= -1276
 c136: u_a2 - u_a5 - 994 y_a5_proc_0 >= -2564
 c137: u_a6 - u_a2 - 1061 y_a2_proc_2 >= -2577
 c138: u_a6 - u_a2 - 217 y_a2_proc_1 >= -1
 c139: u_a6 - u_a2 - 311 y_a2_proc_0 >= -2577
 c140: u_a2 - u_a6 - 516 y_a6_proc_2 >= -2576
 c141: u_a2 - u_a6 - 991 y_a6_proc_1 >= 0
 c142: u_a2 - u_a6 - 969 y_a6_proc_0 >= -2576
 c143: u_a7 - u_a2 - 1061 y_a2_proc_2 >= -2589
 c144: u_a7 - u_a2 - 217 y_a2_proc_1 >= -1301
 c145: u_a7 - u_a2 - 311 y_a2_proc_0 >= -1301
 c146: u_a2 - u_a7 - 859 y_a7_proc_2 >= -2564
 c147: u_a2 - u_a7 - 1135 y_a7_proc_1 >= -1276
 c148: u_a2 - u_a7 - 893 y_a7_proc_0 >= -1276
 c149: u_a8 - u_a2 - 217 y_a2_proc_1 >= -1301
 c150: u_a8 - u_a2 - 311 y_a2_proc_0 >= -1301
 c151: u_a2 - u_a8 - 1243 y_a8_proc_1 >= -1276
 c152: u_a2 - u_a8 - 840 y_a8_proc_0 >= -1276
 c153: u_a9 - u_a2 - 1061 y_a2_proc_2 >= -2578
 c154: u_a9 - u_a2 - 217 y_a2_proc_1 >= -2
 c155: u_a9 - u_a2 - 311 y_a2_proc_0 >= -2578
 c156: u_a2 - u_a9 - 1173 y_a9_proc_2 >= -2575
 c157: u_a2 - u_a9 - 1243 y_a9_proc_1 >= 1
 c158: u_a2 - u_a9 - 815 y_a9_proc_0 >= -2575
 c159: u_a4 - u_a3 - 635 y_a3_proc_2 >= 0
 c160: u_a4 - u_a3 - 953 y_a3_proc_1 >= -2576
 c161: u_a3 - u_a4 - 767 y_a4_proc_2 >= -1
 c162: u_a3 - u_a4 - 932 y_a4_proc_1 >= -2577
 c163: u_a5 - u_a3 - 635 y_a3_proc_2 >= 1
 c164: u_a3 - u_a5 - 819 y_a5_proc_2 >= -2
 c165: u_a6 - u_a3 - 635 y_a3_proc_2 >= -1276
 c166: u_a6 - u_a3 - 953 y_a3_proc_1 >= -1276
 c167: u_a3 - u_a6 - 516 y_a6_proc_2 >= -1301
 c168: u_a3 - u_a6 - 991 y_a6_proc_1 >= -1301
 c169: u_a7 - u_a3 - 635 y_a3_proc_2 >= -1276
 c170: u_a7 - u_a3 - 953 y_a3_proc_1 >= -2564
 c171: u_a3 - u_a7 - 859 y_a7_proc_2 >= -1301
 c172: u_a3 - u_a7 - 1135 y_a7_proc_1 >= -2589
 c173: u_a8 - u_a3 - 953 y_a3_proc_1 >= -2589
 c174: u_a3 - u_a8 - 1243 y_a8_proc_1 >= -2564
 c175: u_a9 - u_a3 - 635 y_a3_proc_2 >= -1301
 c176: u_a9 - u_a3 - 953 y_a3_proc_1 >= -1301
 c177: u_a3 - u_a9 - 1173 y_a9_proc_2 >= -1276
 c178: u_a3 - u_a9 - 1243 y_a9_proc_1 >= -1276
 c179: u_a5 - u_a4 - 767 y_a4_proc_2 >= 0
 c180: u_a5 - u_a4 - 1074 y_a4_proc_0 >= -2576
 c181: u_a4 - u_a5 - 819 y_a5_proc_2 >= -1
 c182: u_a4 - u_a5 - 994 y_a5_proc_0 >= -2577
 c183: u_a6 - u_a4 - 767 y_a4_proc_2 >= -1276
 c184: u_a6 - u_a4 - 932 y_a4_proc_1 >= -1276
 c185: u_a6 - u_a4 - 1074 y_a4_proc_0 >= -2564
 c186: u_a4 - u_a6 - 516 y_a6_proc_2 >= -1301
 c187: u_a4 - u_a6 - 991 y_a6_proc_1 >= -1301
 c188: u_a4 - u_a6 - 969 y_a6_proc_0 >= -2589
 c189: u_a7 - u_a4 - 767 y_a4_proc_2 >= -1301
 c190: u_a7 - u_a4 - 932 y_a4_proc_1 >= -2589
 c191: u_a7 - u_a4 - 1074 y_a4_proc_0 >= -1301
 c192: u_a4 - u_a7 - 859 y_a7_proc_2 >= -1276
 c193: u_a4 - u_a7 - 1135 y_a7_proc_1 >= -2564
 c194: u_a4 - u_a7 - 893 y_a7_proc_0 >= -1276
 c195: u_a8 - u_a4 - 932 y_a4_proc_1 >= -2589
 c196: u_a8 - u_a4 - 1074 y_a4_proc_0 >= -1301
 c197: u_a4 - u_a8 - 1243 y_a8_proc_1 >= -2564
 c198: u_a4 - u_a8 - 840 y_a8_proc_0 >= -1276
 c199: u_a9 - u_a4 - 767 y_a4_proc_2 >= -1301
 c200: u_a9 - u_a4 - 932 y_a4_proc_1 >= -1301
 c201: u_a9 - u_a4 - 1074 y_a4_proc_0 >= -2589
 c202: u_a4 - u_a9 - 1173 y_a9_proc_2 >= -1276
 c203: u_a4 - u_a9 - 1243 y_a9_proc_1 >= -1276
 c204: u_a4 - u_a9 - 815 y_a9_proc_0 >= -2564
 c205: u_a6 - u_a5 - 819 y_a5_proc_2 >= -1301
 c206: u_a6 - u_a5 - 994 y_a5_proc_0 >= -2589
 c207: u_a5 - u_a6 - 516 y_a6_proc_2 >= -1276
 c208: u_a5 - u_a6 - 969 y_a6_proc_0 >= -2564
 c209: u_a7 - u_a5 - 819 y_a5_proc_2 >= -1301
 c210: u_a7 - u_a5 - 994 y_a5_proc_0 >= -1301
 c211: u_a5 - u_a7 - 859 y_a7_proc_2 >= -1276
 c212: u_a5 - u_a7 - 893 y_a7_proc_0 >= -1276
 c213: u_a8 - u_a5 - 994 y_a5_proc_0 >= -1276
 c214: u_a5 - u_a8 - 840 y_a8_proc_0 >= -1301
 c215: u_a9 - u_a5 - 819 y_a5_proc_2 >= -1301
 c216: u_a9 - u_a5 - 994 y_a5_proc_0 >= -2589
 c217: u_a5 - u_a9 - 1173 y_a9_proc_2 >= -1276
 c218: u_a5 - u_a9 - 815 y_a9_proc_0 >= -2564
 c219: u_a7 - u_a6 - 516 y_a6_proc_2 >= -2564
 c220: u_a7 - u_a6 - 991 y_a6_proc_1 >= -1276
 c221: u_a7 - u_a6 - 969 y_a6_proc_0 >= -1276
 c222: u_a6 - u_a7 - 859 y_a7_proc_2 >= -2589
 c223: u_a6 - u_a7 - 1135 y_a7_proc_1 >= -1301
 c224: u_a6 - u_a7 - 893 y_a7_proc_0 >= -1301
 c225: u_a8 - u_a6 - 991 y_a6_proc_1 >= -1301
 c226: u_a8 - u_a6 - 969 y_a6_proc_0 >= -1301
 c227: u_a6 - u_a8 - 1243 y_a8_proc_1 >= -1276
 c228: u_a6 - u_a8 - 840 y_a8_proc_0 >= -1276
 c229: u_a9 - u_a6 - 516 y_a6_proc_2 >= -2577
 c230: u_a9 - u_a6 - 991 y_a6_proc_1 >= -1
 c231: u_a9 - u_a6 - 969 y_a6_proc_0 >= -2577
 c232: u_a6 - u_a9 - 1173 y_a9_proc_2 >= -2576
 c233: u_a6 - u_a9 - 1243 y_a9_proc_1 >= 0
 c234: u_a6 - u_a9 - 815 y_a9_proc_0 >= -2576
 c235: u_a8 - u_a7 - 1135 y_a7_proc_1 >= -2578
 c236: u_a8 - u_a7 - 893 y_a7_proc_0 >= -2
 c237: u_a7 - u_a8 - 1243 y_a8_proc_1 >= -2575
 c238: u_a7 - u_a8 - 840 y_a8_proc_0 >= 1
 c239: u_a9 - u_a7 - 859 y_a7_proc_2 >= -2589
 c240: u_a9 - u_a7 - 1135 y_a7_proc_1 >= -1301
 c241: u_a9 - u_a7 - 893 y_a7_proc_0 >= -1301
 c242: u_a7 - u_a9 - 1173 y_a9_proc_2 >= -2564
 c243: u_a7 - u_a9 - 1243 y_a9_proc_1 >= -1276
 c244: u_a7 - u_a9 - 815 y_a9_proc_0 >= -1276
 c245: u_a9 - u_a8 - 1243 y_a8_proc_1 >= -1276
 c246: u_a9 - u_a8 - 840 y_a8_proc_0 >= -1276
 c247: u_a8 - u_a9 - 1243 y_a9_proc_1 >= -1301
 c248: u_a8 - u_a9 - 815 y_a9_proc_0 >= -1301

Bounds
End
