benchmark/results/graph__10-1000-0.10-03_17/graph__10-1000-0.10-03_17_QuintonOs_Benders_primal_sub.txt
solution for: Quinton Bounded Benders_primal_sub
objective: 0.000328947
status: OPTIMAL_SOLUTION(2)
u_a0=0.209
u_a1=1.720
u_a2=2.078
u_a4=0.748
u_a5=1.443
u_a6=1.150
u_a7=2.150
u_a8=0.443
u_a9=0.476
tau=0.000
y_a0_proc_2=0.000
y_a1_proc_0=0.000
y_a2_proc_1=0.000
y_a3_proc_2=0.000
y_a4_proc_2=0.000
y_a5_proc_2=0.000
y_a6_proc_1=0.000
y_a7_proc_0=0.000
y_a8_proc_0=0.000
y_a9_proc_1=0.000
